C_N_H_Pb_I
1.0
       12.614	0	0
       0	12.614	0
       0	0	12.614
    C    N    H   Pb    I
    8    8   48    8   24
Direct
-0.32672202032127756	-0.06134746228994653	-0.1391696136421119
0.18865515730959112	-0.026816113213761872	-0.13952854374495316
-0.30708936000259235	0.46670236483555805	-0.18075337871852717
0.20580183826551132	0.4677763471642313	-0.10396338087641209
-0.3006215180073179	-0.08917367458731731	0.26561650586207547
0.19204033072935195	-0.09530686371277719	0.35721296355793813
-0.2529982308298223	0.4688589408242301	0.3926806113432171
0.13984610006330753	0.4409648015251682	0.3345553329015017
-0.2160810234393721	-0.09319997280055176	-0.16367168205616148
0.24993460354542166	-0.12914733188494956	-0.13172029777997837
-0.27727519159595876	0.3545773465526602	-0.16190898328350584
0.17752148792232575	0.4356778523710808	-0.2128133474541473
-0.21225115200979966	-0.016060047950810747	0.30362012944638994
0.30977991271100347	-0.056945511790634375	0.3522435408151701
-0.28504187754715704	0.4083327038347045	0.2960525813981798
0.25733141996057735	0.44107562415021007	0.36057897626936447
-0.32499510008927435	0.013366752027602855	-0.09795406181064675
0.2390121472089644	0.04389764410292227	-0.12965276328144734
-0.39367266870309214	0.46635674441268204	-0.21210033460569155
0.211471570899097	0.5522398397792913	-0.10706812089737604
-0.30535443468271933	-0.07819510401266057	0.1804274599689006
0.15963122929367707	-0.0946305338000827	0.2774597000833313
-0.3103504335704906	0.45214713667270345	0.45671053237709236
0.10107220924722966	0.48135881773539685	0.40241705115323645
-0.35681909012392987	-0.11866124988816805	-0.08475705012519044
0.13496322129721214	-0.0254355975891128	-0.07177793405128878
-0.2533357615935499	0.4948578993667649	-0.24376536488564624
0.2892331047309903	0.4452437599482317	-0.09656632393328655
-0.37636353617089874	-0.06167430185706866	0.30189598640483917
0.14566147889823014	-0.04479004399328723	0.41226462870531494
-0.26047530623526455	0.554520655929104	0.37692936263467675
0.11009571248151097	0.36039397518256466	0.32943270748325637
-0.37085636824124557	-0.04561114247983298	-0.21416852810849885
0.14273828266865715	-0.0318932678925622	-0.21852730883424817
-0.3035157293205515	0.514551127914001	-0.1119115755972678
0.14804303655127612	0.4360028824426263	-0.05159400236192894
-0.27621461339085307	-0.1719013928803341	0.2824098788380122
0.19721353294566488	-0.17952510539948074	0.3874285623622297
-0.17247982029490444	0.44448706179390435	0.4131185085876945
0.1278095800425487	0.48030022252854104	0.2619761454627708
-0.22118193142566295	-0.15365815471088184	-0.21992377044579298
0.1907322693960624	-0.1913512897189564	-0.1382990180083535
-0.20331004626226665	0.35416365490421137	-0.1259708331622699
0.10152163417174805	0.4753932672590512	-0.22852635056941356
-0.19331429291414357	-0.03459479812391342	0.380158726169247
0.3446017249048855	-0.057779116572338855	0.4249634343984126
-0.3042381245617729	0.3293915872418404	0.3133940580339252
0.3000662613400698	0.48878809628082975	0.30740144574820444
-0.18603178937146225	-0.11933754894964652	-0.08992194633830833
0.29169379505165277	-0.14340000669099576	-0.06335996343440599
-0.27495323976394737	0.3089729863586789	-0.2287561400817847
0.17644192725753824	0.3529590480158574	-0.22899415927365502
-0.24888884189725863	0.05835377597566581	0.3047561824571138
0.300393851569174	0.020658391634244083	0.3262404641354366
-0.2234644798692543	0.3986510629203983	0.24565242446410623
0.29378871363170284	0.3712710169607173	0.34338394626370855
-0.17056120748931486	-0.03420916448086028	-0.19556760964782421
0.2994038980422445	-0.13674775087961966	-0.1966309540374588
-0.3250965885647629	0.3170065719763885	-0.10776277471454132
0.22721915926689085	0.47237966768113987	-0.2738017432254335
-0.14835828977762594	-0.01948451601268748	0.25414995607032215
0.34658315106639537	-0.1049066590574172	0.29352046960429123
-0.3510020706045785	0.435233794725635	0.2525362616877039
0.2753427792683396	0.4618469088102341	0.4339920705182269
-0.4804380772877841	-0.30981460724848225	-0.4245461509207694
-0.00019041378665742584	-0.3057391276470298	-0.4228817469697382
-0.47521935636297713	0.16525640265290062	-0.42389421795552307
0.062012179518944575	0.19162090646871496	-0.4518004416888534
-0.4893877350541999	-0.30620954258000815	0.040108066453556836
0.005681720922942283	-0.30236477743884205	0.11164233678576134
-0.5410792808710887	0.19774505173670068	0.028395456809132823
0.014947886303192562	0.20927569673119245	0.06269534862390848
-0.26670601868859295	-0.19429922218568768	-0.4185287383973113
0.22993861497674542	-0.3890161150362851	-0.41258681907627937
-0.2481877934069317	0.13040516737725774	-0.37369301789554127
0.29927528753227883	0.20799878641947925	-0.5067720324800374
-0.2590002728766283	-0.31173970860563127	0.030960404416264443
0.21913778206314793	-0.35880172450893993	0.17459586856605164
-0.2957443774059373	0.17621999271940347	0.039244210126990337
0.23542737939762473	0.17546350360730736	0.18555393405055787
-0.054376263792921875	-0.050033760465224245	0.08399973099212352
0.41858015732094206	-0.10796569590415175	0.09595042434415225
-0.071960105765585	0.45034763587293253	0.05312042691843893
0.49316685493332757	0.4046753948209468	0.13976299036933934
0.01908365686636313	-0.037295329049633334	0.5923710533925106
0.38431262748553513	-0.10697250130764503	0.6409497553451761
-0.07908774936361723	0.4788242998566118	0.6271655739345406
0.48017110978019856	0.4065120335690763	0.5748048718809465
0.01343658089790623	-0.27024577582337533	-0.16597419155106638
0.4100560223102394	-0.37774851016962585	-0.16113763896171468
0.011302711652745264	0.19978905327528113	-0.16751713664069756
0.3835650931046859	0.22655317876108758	-0.16509341913427014
-0.1047498845647737	-0.3042073988737885	0.31690858591340487
0.473025476156645	-0.29784592450082625	0.3397220927172331
-0.08170260132672878	0.221244829886077	0.3368227285428859
0.5535356866332151	0.11305096954705282	0.37735002656910843
