C_N_H_Pb_I
1.0
       12.614	0	0
       0	12.614	0
       0	0	12.614
    C    N    H   Pb    I
    8    8   48    8   24
Direct
-0.37066156771865655	-0.04675149081188565	-0.1558521542998581
0.2199000793189672	0.028210879398646596	-0.1485001059058072
-0.28667742249995803	0.4809103840483701	-0.15379290000848586
0.25115069046167804	0.4231737836626213	-0.05463211592304707
-0.2166558599635626	-0.10852303006689445	0.2545850687015419
0.19436182565845192	-0.06647375720861633	0.3154217075756732
-0.2849195911880127	0.5676193951984719	0.2912474999499828
0.1352483127731764	0.403498193337288	0.33875381998882925
-0.2603753846376895	-0.09544498795888352	-0.17597711230221977
0.23233908375044615	-0.09029983799966956	-0.13429881337180413
-0.3057731692244882	0.39193685614128926	-0.2314834529798199
0.23843108451160389	0.4207514931766296	-0.17514756209086937
-0.24900148159682106	-0.09169288843394321	0.3715335223770267
0.306613793722886	-0.043975426451954305	0.34452935565232723
-0.26273529420366887	0.4539170668734178	0.2986764549751463
0.24676025541778523	0.41393464248276945	0.37433106939426436
-0.3846164596933241	-0.027289752641049884	-0.07409411509747357
0.26906262200045133	0.05813192687290538	-0.218841872123942
-0.26743860324548774	0.44552126016146476	-0.08096154851366652
0.2339966942989899	0.34181704809760893	-0.022650807926689154
-0.2535388341080474	-0.048053847753952085	0.2066708362706946
0.18299256901288274	-0.05748164258705251	0.23012697527094475
-0.3328433260152552	0.5879939541553697	0.2205668373176763
0.13262981836102544	0.3783552378030421	0.2615611485776491
-0.4306314850410338	-0.10898671862343644	-0.17673078883205942
0.2501498193698116	0.06824126565502715	-0.0753988720094075
-0.34541910695063255	0.5390735794578866	-0.17308524039979564
0.19337267904927366	0.46680590041948633	-0.006497039518553804
-0.24464221173348985	-0.18766548816069806	0.23116695395131467
0.13303665419055397	-0.009764008904061693	0.3525164281376734
-0.20838071270914618	0.6161501301380363	0.29183276289217347
0.09611290057967206	0.4794017510388706	0.34223277269297697
-0.38591465856472934	0.02273468923374234	-0.20968460135562164
0.13188603353345368	0.029808906819916724	-0.1500746196375859
-0.21011382175437326	0.5117916978555397	-0.1792316895877881
0.33027028497506655	0.4455650210678582	-0.043167534519965564
-0.13051646118163102	-0.0950447071218048	0.25039484405115314
0.17391345607946354	-0.15089484229957686	0.334429974363244
-0.3324089752259635	0.5887404395103303	0.36288712276265706
0.09235624682493654	0.3418125319974793	0.3852487916841187
-0.2530337173207384	-0.17453109376545753	-0.14590315900104092
0.19867305647697833	-0.12301960208895303	-0.06552634128844019
-0.3128553576304171	0.42324203625231727	-0.3084149059675769
0.23794582898047714	0.48851285036220143	-0.21229589709820287
-0.32669507059702013	-0.11731746920836901	0.3742173594745536
0.3186777670535512	-0.057162064530380655	0.4263167275251022
-0.3349872911566073	0.4143172891009282	0.2838765468523861
0.2934536617755121	0.34408961714409875	0.3661674445054368
-0.20962259811540374	-0.04006718296564233	-0.14181112946848382
0.3151698000185338	-0.10026145510899362	-0.12630050841296436
-0.37417517803225936	0.3454093371744605	-0.21110243627869438
0.16916613033333963	0.37495682318302687	-0.19149409925416336
-0.24673197402355168	-0.01564998723168876	0.3936334184960488
0.3278548279686394	0.033262825247314796	0.3314662954826806
-0.2362821654101143	0.4377135959357701	0.37641054796000467
0.2479131975383735	0.42792185690167367	0.4572945218246585
-0.24871201060829304	-0.10207603069902475	-0.25253858422940234
0.20520033201341523	-0.1323989155725369	-0.19895923473770408
-0.23702294475904814	0.3520142356333939	-0.22682473749916626
0.30385185593249137	0.37927488650919183	-0.20006153342219013
-0.21247417633820526	-0.1402615713184074	0.42566282443360764
0.3534735161289086	-0.08865433332893086	0.29572265430168465
-0.2088505985400934	0.42195849213772424	0.2364600643326451
0.2845863836479715	0.47371043094880394	0.3360861011961923
-0.5074381839458095	-0.3072039734946107	-0.4470512654979176
-0.013345108532437163	-0.3291378360407311	-0.41082851249555796
-0.5228753219509695	0.2048608361545631	-0.4497128723540338
-0.028188976666657227	0.19038661324394804	-0.38445704288417254
-0.475585279577429	-0.31453983221129816	0.06241665274044641
0.025881563279519862	-0.34945003558540993	0.10390599181300011
-0.5020819785608744	0.19568127885058767	0.0928776400396558
-0.01995275200051986	0.1580719620800509	0.10401290521227197
-0.27380327125324	-0.2384059563498746	-0.39219127362488676
0.22113653368011096	-0.40455882756720596	-0.4405325452744976
-0.2591966550827654	0.1283918834597966	-0.38151641517207074
0.23508492120806548	0.2133154334153155	-0.4839502235037617
-0.25867159481349405	-0.3170215962009504	-0.013240510023963736
0.24749595731954876	-0.3836533860222091	0.15238834281187308
-0.2777178423203021	0.21137908261216679	0.0035942084781410673
0.21204221347765545	0.18029555866440083	0.15993492381771124
0.00381113832820202	-0.07211190494850749	0.019248161279401405
0.4478286106381811	-0.06118834361827179	0.05554144133959219
-0.061261446226755466	0.42657663871750884	0.11850382698924115
0.4795765147120588	0.42213698319086196	0.1857729556896147
-0.01872754680297522	-0.09323420732381625	0.6531125932715952
0.4023223120801752	-0.09004383438799743	0.6157412138596887
-0.14081271657331784	0.4259844992017927	0.550718742324015
0.5299029559765286	0.42713200875143376	0.5157984485996226
0.06701351472998651	-0.3332105094146273	-0.1476570730171455
0.4327802924676424	-0.30311755560315223	-0.17071610695537673
-0.016299638576330086	0.2803949104395726	-0.16195312506960458
0.4512224229553338	0.272543207869043	-0.1903109519328413
-0.024087088678029955	-0.2732256810514386	0.36417763880583376
0.519124389501765	-0.22133339051677609	0.3286553206234412
-0.11433884017837596	0.17944123361811357	0.3343881231993664
0.5819704898242655	0.14254379368135692	0.32247000776326534
