C_N_H_Pb_I
1.0
       12.614	0	0
       0	12.614	0
       0	0	12.614
    C    N    H   Pb    I
    8    8   48    8   24
Direct
-0.373869507536762	-0.02913330911194566	-0.1502573685924275
0.24439273667754052	0.050642608381882934	-0.13647314782855008
-0.25267857759195467	0.4947083249919243	-0.1922254988487058
0.1879130347877103	0.4369425984189886	-0.07533451034802108
-0.25596902398339344	-0.09978800574156557	0.2509217086235628
0.17556543189374008	-0.08872070168485596	0.3701735871529077
-0.302735562619023	0.5315273752251848	0.2989026779622652
0.14585915207097114	0.4285000237871256	0.3354692203055159
-0.2637167182963949	-0.06595383587356322	-0.16578909451779844
0.21770332470248707	-0.06834846401341173	-0.1262103665304463
-0.28850650709271114	0.3818937850974254	-0.20545281869847165
0.22160796714305517	0.4102357025867517	-0.18777216390230522
-0.24838687570072893	-0.10112781108927507	0.36798385081931734
0.2852011821132385	-0.051953866314124596	0.3422944244360322
-0.2648669221644332	0.4169519509471839	0.29086809645453127
0.26191685020314404	0.42043962195589274	0.3636298719678095
-0.37217797405729997	0.010651793896977475	-0.07594860361716167
0.28009570643782555	0.05462276176441903	-0.21763049405363352
-0.30728054388892173	0.5390793796065697	-0.14162855691431728
0.2259960572814385	0.37714477390706447	-0.022572577609712773
-0.33673887898670113	-0.08418686624941425	0.23753460338563873
0.168059964038833	-0.17359720994810818	0.3500329559679284
-0.36071226619218966	0.539149146488968	0.23896386897114918
0.11875444250893448	0.348509326070651	0.3348101672749174
-0.42548914865084386	-0.09924924195291673	-0.14768782820658888
0.3071747954149139	0.07723865803204472	-0.07838685451795363
-0.2444779834512654	0.5342503242951314	-0.26722856678275864
0.10225882960469333	0.43282530961442384	-0.07212271362527904
-0.2344784298545668	-0.17877673723596027	0.22465588233463518
0.11054669014244946	-0.0371715308343356	0.3368785541595905
-0.23180150206646366	0.5810950141875016	0.29087575802713755
0.13356305423621712	0.4765862355525532	0.2646650088299749
-0.38895373834158825	0.030598010324771534	-0.21088023386139748
0.17215152497751343	0.09779207600537966	-0.12056918016815787
-0.17733543672738136	0.491046319560611	-0.1461533257773679
0.21701840569869954	0.514399396389405	-0.059187193973832375
-0.20522786852568572	-0.028850978801336073	0.22638676401510072
0.17168937468312453	-0.08617873111379272	0.45826165339404934
-0.3451300392113478	0.5373584062127771	0.3757415063981552
0.1078984689505638	0.4742520675625646	0.40163831895650043
-0.23440250434140175	-0.10620328052242492	-0.10101941733426696
0.16236955543394904	-0.07756385393846651	-0.06043526228015108
-0.23904982018909726	0.3501332124643898	-0.25982860015978326
0.2113595519745591	0.4723415746421243	-0.2433357441099575
-0.31389567557910814	-0.13878491493033546	0.40103157364455494
0.3077309330039842	0.019663941718266863	0.38230974644868837
-0.3264249769640457	0.36725768840270967	0.2856394781321726
0.31173315796801726	0.4154164520319264	0.3011133324525344
-0.213393387291051	-0.003677835913519398	-0.1836673853588345
0.2757567274885855	-0.11771994819857975	-0.09898345938938603
-0.3652540267523793	0.3713307336171707	-0.22503399355736875
0.17910079059334635	0.34663212311062935	-0.21204560326497227
-0.2487218869783627	-0.02092906792323956	0.3913951370759809
0.30588008827948765	-0.04537540180581008	0.260454553421159
-0.21969281492697992	0.3957480206003194	0.362234957390959
0.27180132497284115	0.34812648117194867	0.4072263239761202
-0.26334990486705173	-0.11736607926105172	-0.23225038546075605
0.17778430817205107	-0.08454601335395379	-0.19636222086228813
-0.2748794364441999	0.35058068432156764	-0.13289479138705446
0.30269380861047157	0.392852345725898	-0.19689800092183957
-0.1854218631947184	-0.1428028707629818	0.3972421604880467
0.3366049048635789	-0.11352163859532365	0.36724292692111493
-0.2169580546075018	0.40376007605975406	0.22811109625990228
0.2931401626833049	0.4862287997033779	0.4093474046447638
-0.5169329098183933	-0.28138445223663605	-0.4126456091733057
-0.017972602141031687	-0.36123554973887867	-0.3988332966745447
-0.49116743641407573	0.2161047277339367	-0.4345694231307215
-0.0030240470341386175	0.161342012130258	-0.42662814491561685
-0.4872276431270649	-0.31824969897355226	0.050077793490258427
0.019286020775273915	-0.32699839854780705	0.08494880619338047
-0.5096397492385619	0.18469468285571683	0.07704258638555812
-0.00013083976027336634	0.18863336117338794	0.11680249939929109
-0.2796172911428202	-0.21559502157360172	-0.380288517285263
0.22727572148341663	-0.43287632723523717	-0.434116990580415
-0.26647321314097727	0.15135807491698028	-0.342284570903266
0.2313609834756221	0.22018876828244544	-0.46782129797746214
-0.24870806963192055	-0.2854974627636976	0.01611856364857139
0.24220843423957839	-0.3523389522087558	0.14763722293621329
-0.2771472474158405	0.19960631515535862	0.016669398631610835
0.23946079408201565	0.18680711711557405	0.1771605525815716
-0.022841329371026564	-0.07166248201431595	0.036026304735194456
0.4147720179406635	-0.07766100248210313	0.06804586366643901
-0.07241327249673864	0.43063333082021366	0.07441705052810554
0.4571362217468433	0.4228099655651636	0.1380309267067784
0.01508397950951002	-0.06490389333873015	0.6812419194824477
0.39613223434082406	-0.0749285599701987	0.6034525277525388
-0.11713944305305586	0.41469402414183965	0.5406683102035602
0.5283924340886724	0.4380482676947505	0.5173054073705359
0.08811671451575084	-0.3328661495999217	-0.1487733654327229
0.4090292085819319	-0.34151587407961503	-0.1729790872511328
-0.00926115361382296	0.25887857394835073	-0.18978896671853537
0.45872977356435335	0.268841329769812	-0.20306486092032217
-0.05129832923373769	-0.2949943255053552	0.3731993836828691
0.5094476533199159	-0.24474283631355817	0.327989924784431
-0.08976707759131652	0.15558106969833388	0.3323282979035117
0.5554073100942519	0.13478349572695825	0.307918112718046
