C_N_H_Pb_I
1.0
       12.614	0	0
       0	12.614	0
       0	0	12.614
    C    N    H   Pb    I
    8    8   48    8   24
Direct
-0.320361309195713	-0.03881156996290431	-0.13886163562765277
0.17435851723872953	0.014537933203881855	-0.16097335924905845
-0.3484718594671278	0.4216582476674451	-0.13088689166855577
0.19517755179971527	0.4389459280741182	-0.09310365843314464
-0.30156663836126973	-0.10594739237822039	0.22376681830821726
0.18496191119567823	-0.10086280143215912	0.3560517033578599
-0.2638560369907952	0.5366166173357805	0.349174717640877
0.16070454286964617	0.44227228972587035	0.32836452809782524
-0.21025839745591454	-0.0536895324491879	-0.16890334729802967
0.23462125341592602	-0.08583287687203535	-0.16390831882177045
-0.2376791435375768	0.40199048134083626	-0.17342774516827242
0.20243379732502112	0.43422384695043625	-0.21232114194126747
-0.27969137311198344	-0.04325076407274494	0.3240656076766545
0.2856104487261179	-0.04454151441021722	0.3354476614670448
-0.29281995038460373	0.4241180651477247	0.32640084720930895
0.279338679248366	0.4547123161660016	0.34772905218919387
-0.3226220921121295	0.02562237450488935	-0.08312363919193845
0.23873843296572422	0.07664567724508423	-0.17536588174297285
-0.3469709107553259	0.4195557357793218	-0.04522207948311652
0.2763832022609814	0.46098971360857943	-0.05779302579569025
-0.38315421229239083	-0.12716848111328613	0.2198799337869124
0.1256256048483226	-0.041467440417452116	0.3421696275857836
-0.3323855451153292	0.5922629816663771	0.3278106344789975
0.14812822920396349	0.370812099361103	0.3802938881254332
-0.3470079291366885	-0.11064863585479036	-0.09936051031090945
0.13716242622971062	0.02064191978214703	-0.08283163226027147
-0.3985257820420351	0.3588878418937948	-0.1624282768956291
0.15245954249702764	0.36889555331523594	-0.06765053889782757
-0.2506836327097926	-0.17683335674227216	0.23265662327546707
0.18888860734407423	-0.12765991406209778	0.4445060529440562
-0.18778564792817573	0.5499895256041122	0.31185973906077613
0.14830316693957266	0.422915269924851	0.24773552734651424
-0.3704361844936315	-0.035196690195620425	-0.21136405267885092
0.1122906926254	0.008311485529803578	-0.2221646795611416
-0.36768162502442137	0.49632500218948733	-0.1614333799090581
0.14291073733689816	0.5050124320817563	-0.08018178009474146
-0.2729155434813323	-0.05751500043144045	0.15397626113593374
0.16578555699941455	-0.16682498998579812	0.3112157166198002
-0.25383619530340606	0.541441861334085	0.4373402905388801
0.12269882897694956	0.514605817197183	0.3598927471494503
-0.20182956868515672	-0.11487297568827252	-0.2223163413449536
0.17742331795160576	-0.14668100003138324	-0.1622459937181679
-0.23289211046526634	0.40231685258610983	-0.2554759104884651
0.1379587705970162	0.40482735528349145	-0.24887713132585074
-0.20858075665854417	0.001899283653777682	0.3091365923113084
0.3525719871213303	-0.08734887514162216	0.3640607899913767
-0.34400979833888773	0.39562742257682576	0.3900457217511717
0.309975759702573	0.37808816191138106	0.35572816643303423
-0.15483981713450504	-0.06686143320951425	-0.10744830543657459
0.2841427067737419	-0.0889509209315136	-0.10147034555963501
-0.2106705909326488	0.32500984123062326	-0.16496279517744428
0.259186193510866	0.37506726594793904	-0.2334998186812336
-0.27897209507078585	-0.09046522093702222	0.38977261783338374
0.28552586529391144	0.035344827225764555	0.3676107038735537
-0.2334390154431009	0.37119515143227977	0.31509913295583414
0.2895171325384595	0.5047478869301125	0.41438980769934813
-0.17645660453130996	0.014129487324020654	-0.20711112117517047
0.28271847047307364	-0.09968698619769092	-0.2297578917121241
-0.18462130687683542	0.45798520649286073	-0.14164981356853135
0.21809764127209433	0.505394363425392	-0.2483646670649767
-0.3351249073173403	0.025959224560649915	0.32873942371146675
0.30120416148356677	-0.03228133842988067	0.25336290965553554
-0.33806467235425014	0.4189066788213851	0.26027404026167594
0.31562557059369645	0.48819275216947366	0.2787420041978197
-0.46367927517090546	-0.30364162916413934	-0.4161602846044059
0.014665312992917673	-0.3392044728719747	-0.4142815324171258
-0.4686221179304618	0.1591643732409106	-0.4190535563189954
0.0408633441598016	0.1893865595372523	-0.4410496444066797
-0.5126005773560095	-0.3143778162239172	0.048683913281815636
-0.0014727763519806483	-0.3168202592296169	0.10144645832988451
-0.5342892698673274	0.21561132850186068	0.040245030095770885
-0.010811476404295837	0.20003910711872352	0.08987856873903663
-0.24315910374810157	-0.21757401360568585	-0.4255271130435306
0.2607201810010191	-0.4025470173718623	-0.4184963464496522
-0.24178811111473894	0.16051837869191193	-0.3553206749846695
0.2816952102033907	0.1863476644792819	-0.4857469307200974
-0.2648555616576959	-0.3094876373330446	0.0080341918736007
0.22224835419058372	-0.3483038874786367	0.1559831774655404
-0.28752682947069325	0.18511140451865654	0.06774738665729141
0.24686058661603846	0.21366510285250265	0.1719165143590764
-0.020217142086511767	-0.07452868284196862	0.06097613447080439
0.40076094070452795	-0.06855133687151259	0.06197612531284628
-0.11499486275797587	0.43121765031521664	0.09087703364909712
0.5029481757275399	0.4214936457607705	0.16172125878564386
0.040357326149107565	-0.04347960290149029	0.5755429048932986
0.37780410712716117	-0.08246733598943917	0.6099172411548799
-0.07851757018945515	0.4676445422321735	0.6165436599503198
0.5144185049669652	0.4201860890169249	0.5589220542532108
0.02525060700080316	-0.28757139415703575	-0.17444272557833698
0.3870611547375991	-0.39930376540759627	-0.14745331795204294
0.0033296342779750615	0.21269419685715601	-0.1772449010909143
0.3990200777364065	0.2349778789165187	-0.18377946555687522
-0.08904073727445436	-0.2738685697572791	0.318136497474747
0.45727614521998167	-0.3183960176919457	0.36674824203174516
-0.09681749494369676	0.19041841967516937	0.3227600381616867
0.5415863126134125	0.14420317306772246	0.35355105071048815
