C_N_H_Pb_I
1.0
       12.614	0	0
       0	12.614	0
       0	0	12.614
    C    N    H   Pb    I
    8    8   48    8   24
Direct
-0.36572932438084016	-0.048744990770553	-0.1714256257247433
0.29298764318155107	-0.12681237549835608	-0.12055459771441898
-0.33415766904412253	0.37216993901943046	-0.1782807789386572
0.22158036635848	0.4390537961115461	-0.03618291991188262
-0.2643862817288423	-0.077819404162683	0.24233001018779665
0.25000502962345916	-0.012542804254759819	0.3265195930823902
-0.24597142287192375	0.5295316530039811	0.3377359611329964
0.14830980701516233	0.49888603927170105	0.3291663483156945
-0.2509616914105942	-0.019480192264684636	-0.19448414359271055
0.21630184371731656	-0.1683449048259183	-0.1986621669579538
-0.2404191886857972	0.40860052498636495	-0.11229878636758768
0.2105340450372043	0.4083327616107266	-0.1445481359191205
-0.32899496823238755	-0.07156334926488264	0.34229400681311356
0.21850520061069892	-0.11655144423251956	0.38170197063032185
-0.24581817631042166	0.41457830650232397	0.32168968458473385
0.2634054112200057	0.4910708127345498	0.3518970525818943
-0.4085328713764419	0.02779257263912292	-0.16201215163069296
0.3727831589903701	-0.1426762299287178	-0.14991399505380557
-0.39719739026510187	0.430030173137965	-0.16589818960730254
0.17061192981211387	0.5060150116430316	-0.02011183097529937
-0.31033519143750327	-0.03704948757403325	0.17580910986067796
0.3201889083221268	0.02102135391268578	0.3687373439979027
-0.31338526827279267	0.5528659215514813	0.3912402652357154
0.13207022672843108	0.44535396489144685	0.2649379719634504
-0.362955116815388	-0.09470541051598975	-0.09585156937131435
0.2748071133502437	-0.16035643397829763	-0.04184592035729224
-0.3661718442864492	0.2926794711319792	-0.15092616867712275
0.302628331277391	0.4572986492133575	-0.014831076931540418
-0.24038914869989605	-0.15763104164985106	0.22610462037842882
0.19374345691239278	0.051326071869059	0.34093398207241027
-0.2515809937416865	0.570733978872968	0.2607244525429297
0.12219409212475164	0.5797538825013532	0.30534612749998635
-0.3865253914864911	-0.1032121090530537	-0.2365372888460027
0.2817203702764407	-0.042078023522878136	-0.11851616501979896
-0.3144731181904691	0.38001273713479705	-0.2594033013749665
0.19557006776648445	0.3796934843704196	0.023172196440169983
-0.18980817297993652	-0.032614609715944945	0.25051601033639836
0.2607882515652593	-0.03505750111782567	0.24307278232781238
-0.17386823963099	0.5453646080093705	0.38069517980103224
0.11072600508152247	0.4752055892492652	0.40605376394654563
-0.2493057915496694	0.0620318663912175	-0.2262380486424266
0.23868177872923116	-0.13939657461325788	-0.2717909155692898
-0.178861649648639	0.43785278716382386	-0.1580130624783244
0.13119415213177443	0.419776039026706	-0.16711285381758537
-0.3848122064612281	-0.13153677667522254	0.3396931083772513
0.14165269667159397	-0.12995976262383968	0.3589439044863764
-0.19011953441650414	0.392663473998152	0.26549844575236486
0.289883420428918	0.413399018301044	0.38468602145959657
-0.22095072080890227	-0.07503788738499288	-0.25470839521907723
0.1407624041335361	-0.14349263270484422	-0.17513669278040025
-0.2135049794221016	0.3413565850217967	-0.07346577836303886
0.23287803456741046	0.331511584823385	-0.15959477887842594
-0.368958461155246	0.0019221051036519797	0.35030842744625085
0.2248438645232484	-0.12214456413699691	0.4635691567796766
-0.3099762224288161	0.3884492169953792	0.28043110631388923
0.28371323519390135	0.5446277116250222	0.40919375467579894
-0.19174147379150835	-0.015457031471852123	-0.13903952210494722
0.2169866198831737	-0.2527242557105217	-0.20273176260802075
-0.2612727492122855	0.468744859532714	-0.05913849906785283
0.25676726787546084	0.45641375095193715	-0.19131831153118906
-0.28652320506387974	-0.09062918323636394	0.40847615055338315
0.2674490256376218	-0.17595989950705876	0.35297860078302934
-0.2417060780135759	0.3657244180608303	0.38900592964889186
0.3057350527861411	0.500477639478473	0.2858772932016743
-0.49567814600311405	-0.33532470319506646	-0.4283990945601941
-0.01992793634206006	-0.3368168354146468	-0.4208457873792897
-0.5511312004984776	0.14012361826055128	-0.3690566502835639
0.022118851865481917	0.170222049360081	-0.4311176869610194
-0.4749544890093373	-0.3680112717379732	0.034455120982139965
0.00938967249197803	-0.28756666707535095	0.07395743405790943
-0.512835082745548	0.15454633954260802	0.0875638382037803
0.0061141692708303885	0.1674241675140921	0.11328214333389734
-0.2716933274550678	-0.22042040691605425	-0.4100194569131652
0.23876133225461224	-0.34843389067823416	-0.43091295755009884
-0.315235699426328	0.160361624838091	-0.38284186121083313
0.21447883094908085	0.3089024766013279	-0.432732396357356
-0.2627239074792409	-0.33713537030976853	-0.05629339902137697
0.24734163048491023	-0.281591689796086	0.1397545844955292
-0.26314548620090045	0.17935739175329207	0.04682455698466031
0.25231755866871247	0.23238564232709433	0.19809814579534088
0.010296289617804951	-0.06409622772029369	-0.02291995313666875
0.4567057567062519	-0.05954012338555976	0.061963324594198704
-0.044083710042448224	0.4163813887807487	0.13343391567561144
0.501616388992104	0.46486792492036383	0.12195936435305543
0.038040112433966815	-0.04803441659014934	0.6232628630930855
0.38976487582502706	-0.03253718361569233	0.5934638653114712
-0.10392145962765384	0.4554344475860888	0.6030887148771429
0.5173849260706853	0.4786654799811103	0.5474082089171088
0.029241339196925308	-0.39436861612435503	-0.15681821173838362
0.42770539950752484	-0.39368816171108095	-0.19654289809990536
-0.011398556872112194	0.2155174083192479	-0.15850079800691763
0.3698998828656216	0.1781812656003822	-0.14766363348229225
-0.04374759873797744	-0.21703570632710734	0.35436164280810367
0.5378588590217032	-0.2884327752917437	0.3124132684483799
-0.09058813263162442	0.17174952756475054	0.34399628928984805
0.5243734549869247	0.19177390487308077	0.3165921379983367
