C_N_H_Pb_I
1.0
       12.614	0	0
       0	12.614	0
       0	0	12.614
    C    N    H   Pb    I
    8    8   48    8   24
Direct
-0.34383881233543356	-0.061241448671283616	-0.18056482209852692
0.1840280260436336	0.005121190853658865	-0.1199272936698383
-0.2879730700587808	0.45156013520414967	-0.11310875525753647
0.20855147088038142	0.4580081392808617	-0.07234623485639909
-0.28992240571963646	-0.09450978256260835	0.2058044430654159
0.19874885172409315	-0.09457949189378022	0.34405589200102166
-0.26336898350446797	0.5309330846041203	0.34354240229109584
0.12160230680572132	0.43346973913157794	0.32687780096334734
-0.22431183091234333	-0.053468576574336193	-0.19319032908132014
0.23649371502284303	-0.10201251005031933	-0.11683520702919335
-0.2871639289576982	0.36018160815802425	-0.18291963055614108
0.18201045603759192	0.4252736820956329	-0.18246492130500436
-0.30891710744992124	-0.06392952842604538	0.3162255439164297
0.3119880546694453	-0.05954790255720996	0.34789822267723314
-0.26919950531815584	0.41317993667185754	0.31681843023950057
0.23810911700979998	0.43572868321541136	0.3080481949961357
-0.3548231487108319	-0.14547459781705588	-0.16645511302495117
0.2336453388723623	0.05940032056591683	-0.16501680765617197
-0.3560346477023924	0.5009115670106024	-0.1391223012558675
0.24076359588161125	0.3784608948999926	-0.037727949328931705
-0.23990348976191378	-0.16196318341109345	0.20546357820590772
0.17400343380084865	-0.0811217439602669	0.26182992461123666
-0.3005325749720753	0.5473632132870672	0.4231821730087896
0.10289641686591221	0.3950904268408312	0.40257748436395574
-0.3879313835172791	-0.0445032833572828	-0.25593734219217296
0.1756409149186191	0.03214800720299582	-0.03852204897178407
-0.22079457011046044	0.5079939528636729	-0.11715106861257284
0.14339412137364038	0.48302054082932394	-0.02999169044723638
-0.26074903637578956	-0.024018041185971645	0.16944651504139463
0.15113154361347828	-0.05643305818612817	0.4056529220272989
-0.3098754687988551	0.5696339710552739	0.2861018364206983
0.08805557546976442	0.3905209749491731	0.26675615354647686
-0.3600777601451689	-0.01574601325503072	-0.11145685790487042
0.10626040264592855	0.0058120681459430485	-0.1490818463032807
-0.2970334868382607	0.4303024553552622	-0.02701053867260827
0.2751249305681101	0.5100622160409611	-0.06874145427747602
-0.3722387210126968	-0.10417510312416825	0.17937337012456406
0.19940046210882123	-0.17900721832368813	0.3647816721287424
-0.18399584786666964	0.5625433762729949	0.34084432720689894
0.08716883302111576	0.5174030116340884	0.3223138830644637
-0.20188233869730351	0.025223172865278753	-0.20607281357808205
0.19159060440617706	-0.1626126385666393	-0.09423498878133646
-0.2372242707124454	0.30038970086089134	-0.15558724493034282
0.14791556069504264	0.4990371752868576	-0.21836964894664254
-0.3623701945978044	-0.0024243975004364375	0.3245473031273583
0.3391203137803297	-0.06216941966166201	0.42179079694483274
-0.2741201750206208	0.36459418285010814	0.38332747523475447
0.267282359307549	0.35849392352075515	0.31080106272446745
-0.19897604109920886	-0.09378426990587968	-0.2620394443106918
0.2936438787417526	-0.09993800690559786	-0.056032323886259706
-0.2603145970659143	0.3757019610234751	-0.26143837578232115
0.12429215063865856	0.36357418457620017	-0.1858074137104482
-0.2410461832363375	-0.030553777126226228	0.35127744903081043
0.3250080897902357	0.021219361916077845	0.3305265610136517
-0.20561153802784404	0.3859663363523914	0.2689680745767245
0.27523837204216267	0.4805599350068696	0.37343969608564226
-0.1884328823659004	-0.07874054819699502	-0.12747512544728765
0.27584636852541305	-0.12304032816738376	-0.18484946409357772
-0.3664356399104003	0.3332439655180318	-0.19102957229289377
0.24968474256661213	0.39998568483663216	-0.2223584013252242
-0.3311926604446701	-0.12566016180366146	0.3661682545396004
0.3539112866904464	-0.11185801383025853	0.2982434563709701
-0.3399430902430085	0.40173900285092934	0.2794620286199398
0.27013977393815114	0.4681517841682344	0.23728572895823488
-0.4598920642523181	-0.31437903904688763	-0.39076012983331965
-0.01037130913013481	-0.35011215687907044	-0.42331019381189217
-0.5093149386043485	0.17314875252379697	-0.411219304036253
0.012075557326081883	0.1777053829234919	-0.43471306393702136
-0.49287997470614436	-0.29667811109851905	0.07260460318007858
-0.0036803797293019727	-0.3189835523102502	0.09734201970467257
-0.5160004612811868	0.2357078176606008	0.06874650465581472
0.018983267729823904	0.188913362386482	0.08722506870785965
-0.2639526020716646	-0.19286066650310385	-0.4318484372936713
0.2047746563329869	-0.44002773205440404	-0.4270864568685942
-0.26177042422024566	0.16826430219189528	-0.3878177764157176
0.22744694145367067	0.18991044347450176	-0.523683027210157
-0.2711550438223402	-0.2758031088348155	-0.015359453012372067
0.2157428381797335	-0.32891633970553447	0.18433829328826806
-0.27241846319562285	0.15656840663737398	0.03265058421946583
0.24922473305970633	0.21945266607831143	0.13404142158061438
-0.0461664847171844	-0.06049895483956879	0.05247864057134177
0.42987728307688844	-0.085609389933927	0.0778645679509903
-0.08210732909709059	0.43696518202345197	0.11727286798168216
0.4915719658528591	0.4158427898273091	0.13018062422691404
0.04580745614271143	-0.019243071162193124	0.622151168121729
0.41566129755596465	-0.0821670078362637	0.6135844616850883
-0.056395315278793344	0.4643096308923084	0.601177109375833
0.5533910533169979	0.40964293219734604	0.5724070298317173
0.03865660318760528	-0.32996326873951143	-0.18026258449647917
0.4032453309593936	-0.3755163969069279	-0.14288237511942956
0.0012071908889225828	0.21084969477725987	-0.16100927877818727
0.40492893567359306	0.22986919697651273	-0.18424741482685916
-0.059739211317687446	-0.23668963497944653	0.32408983723537105
0.47618852133585304	-0.301025718295587	0.35476223297010107
-0.09948082010995875	0.14499963035363922	0.3305313044616119
0.5293881606722185	0.13068777278327376	0.31505128790528614
