C_N_H_Pb_I
1.0
       12.614	0	0
       0	12.614	0
       0	0	12.614
    C    N    H   Pb    I
    8    8   48    8   24
Direct
-0.3787288157187096	-0.04468952655952527	-0.1708530733630629
0.22732456028162776	0.028897294619214725	-0.1522268046762362
-0.3229965585089461	0.4468806331783287	-0.1715764310995092
0.2629112670854877	0.45108757408347727	-0.07332814021074771
-0.22414957488153	-0.07749245368035751	0.23701459239781036
0.2188495441300493	-0.0784665870081396	0.2905758429012433
-0.25356857770839336	0.5317300833631271	0.3314888544468286
0.11680870211252915	0.4375615829982899	0.3170469009325141
-0.2636042331043739	-0.05057200624314241	-0.18561919512880223
0.24244237629771	-0.08461910274623939	-0.12312908591496048
-0.20672024345726195	0.42079236220548627	-0.16547959697742218
0.2621128801881151	0.4171495280945088	-0.18157182248917822
-0.2285263559557154	-0.07370726871479043	0.34864059063173936
0.3084735374084859	-0.010787488637260765	0.3288671727667059
-0.2862975435351861	0.42363227835617207	0.29554510947911483
0.22008970287784904	0.42837145110603564	0.3675390533058434
-0.4251558335593124	-0.05983699808920739	-0.24226199509075658
0.30840143002904785	0.06357517180336812	-0.1579867788590313
-0.3616683273255723	0.4271591803497807	-0.09797559114781722
0.2890279008179283	0.3824391442242559	-0.024290311902657735
-0.2613245475832336	-0.007505965251410658	0.20445537968116168
0.1737036740624778	-0.038296754403350126	0.22539002183919948
-0.2620084641201055	0.5895824191330238	0.2661728413814111
0.10652503335228293	0.3823975041575302	0.255233082532241
-0.3913205154129524	0.03669596653682152	-0.14433112029532036
0.1905797369619161	0.06351659842646643	-0.08081892871829177
-0.3597265053881303	0.39856749972611594	-0.23544693898073418
0.18004223697994937	0.47396233493053136	-0.04870614613944809
-0.27308459463315204	-0.1474340042092447	0.2122477455938749
0.16015650736375148	-0.08799285275190422	0.35773767782873545
-0.16535932559394176	0.5351130467183531	0.3556617085412408
0.10698584366778081	0.5154355558214231	0.28308894414532276
-0.40032179150850006	-0.10148423038420817	-0.10021616483188402
0.18255805432899086	0.036892333928268	-0.22578089897065745
-0.336015769898184	0.5317305460388394	-0.18861062550855004
0.3133565587049777	0.5139678599086605	-0.05549362942104538
-0.14464547289511506	-0.08935478836899971	0.2059129929627964
0.2516443641113547	-0.15715318552294974	0.27129046518583105
-0.3062983242599167	0.5538951257748059	0.3966398018407055
0.059160339614656346	0.42256011213166245	0.37947649891737284
-0.24994552087174057	-0.023492614249117045	-0.2588929957007666
0.17092792129416667	-0.12001061944496341	-0.10910652858211628
-0.18015721757321795	0.44541120704506293	-0.2401339709602433
0.2513381696299383	0.4763132773689044	-0.23702358061346482
-0.3109687868055668	-0.08467070277170247	0.3737343695485825
0.36554144404753647	-0.05729280826015372	0.36313497137496226
-0.3591319251253625	0.4247963528261466	0.2567557351885413
0.2269695175912715	0.3498186162045511	0.3934819995157662
-0.23504933938311906	-0.12459690415655958	-0.17534146851364055
0.2925534344846288	-0.09917679453417999	-0.06431361634530483
-0.19674677129588716	0.3394020422687355	-0.160205982411657
0.2003297010347365	0.3617883238216075	-0.1940812943786948
-0.1942930692678866	-0.007672898604504985	0.38120371330658226
0.2852136449246603	0.049702376963846766	0.38517715539277264
-0.29421232603229003	0.37771487178629487	0.3617678997347796
0.23310998266034788	0.47440801807758043	0.4328491609806084
-0.229793531938372	0.004769467780671655	-0.13511095245040416
0.2661671455344081	-0.13605938992579827	-0.17914602887442105
-0.1700227105154659	0.45776661601517865	-0.10034914877738423
0.33206463870450326	0.3794934436466573	-0.1891210380371393
-0.18129447245359334	-0.13229021739148042	0.3840993354087041
0.3325509746285263	0.027726122352788395	0.26220910593159935
-0.2319544103922566	0.3853223526350649	0.24589081841619415
0.2831230755099191	0.4438502767724255	0.31355467462309417
-0.4809247362220659	-0.31628129792959414	-0.468327443692827
-0.027518953150640537	-0.34927473542271836	-0.4126718804453035
-0.5462871739697739	0.18083425686201288	-0.406033673745413
-0.03481759912138853	0.17323802124910365	-0.3929693186757785
-0.4837802418683714	-0.3093012982185958	0.04313678067866094
0.008064596098678092	-0.31277841107117904	0.09998864098592317
-0.4936872136891517	0.1856250458750291	0.10664837246542472
0.0014907456472021167	0.17910506766731882	0.0960347839189314
-0.2585047211640754	-0.23784513618554323	-0.37336973371529697
0.2204527150145618	-0.392577444186161	-0.40028432036223505
-0.28816816116236615	0.12536647516862695	-0.3802009700965522
0.22452191830240723	0.21088988966911773	-0.499688613632109
-0.2647313898185752	-0.2870004540490339	-0.018934865205180212
0.24051302464393284	-0.35646735131984847	0.1341777938328795
-0.2457205814553935	0.17601549312861034	-0.010162587963594682
0.2333732722062069	0.2100554606339162	0.14904403139803457
-0.012822741739484278	-0.04495680154058708	-1.4117033536481144e-05
0.43054749470300874	-0.07008624940415535	0.08161602633150133
-0.08442234423672623	0.4564396547596826	0.09426633617984374
0.47235247104783534	0.42653672801186365	0.17539387206865892
-0.005098065372139044	-0.0788885970575774	0.6682079845421802
0.37155480988571027	-0.08339393410186792	0.6273302218476382
-0.11008597175388622	0.39968844613292503	0.549696720959634
0.4935957679322193	0.4132803459084703	0.4982053859856955
0.06597626139041479	-0.31058459142255734	-0.15263045180766435
0.4287181227097818	-0.30502634128438194	-0.17216451071889352
0.0260791847113168	0.2715612345766253	-0.17557098273969143
0.46390980726402836	0.21872226637017153	-0.1657149802119223
-0.026312166596566704	-0.2614572476064925	0.36232748179145324
0.5291004212093809	-0.22765037190337384	0.3399407102090715
-0.08765890785173042	0.1569363250848769	0.33826645818824813
0.5778747552483264	0.12137733092859	0.34434103000276906
