C_N_H_Pb_I
1.0
       12.614	0	0
       0	12.614	0
       0	0	12.614
    C    N    H   Pb    I
    8    8   48    8   24
Direct
-0.30824178870400115	-0.057464210553475205	-0.14512571307559657
0.28912792978385554	-0.12679424101619235	-0.14311195993005466
-0.33126181349088135	0.37153141713581767	-0.16720671351568073
0.22047929038938108	0.41941437145010885	-0.026665962082516672
-0.26294686139864953	-0.0846413282852181	0.20687728276654924
0.23030150316630993	-0.02262273913308289	0.30544499536750297
-0.24608034276658186	0.5092434912630307	0.30846424378565035
0.17355050041174241	0.46983523426921264	0.2943077446983942
-0.20275735293847363	-0.0236100143127357	-0.18753228797696062
0.21439435008769878	-0.19149689579249282	-0.2159347759226997
-0.22188427442135364	0.39915083027681403	-0.13971140549657798
0.1800057459895258	0.39703131771538336	-0.1409198631045979
-0.32081425738886427	-0.09532228772594967	0.3069729698098492
0.25161064426820257	-0.1242050926946263	0.35710804154894427
-0.3009715788021776	0.42094719699061345	0.3668191372886225
0.29073943742519953	0.4810345257447841	0.3118276293619312
-0.2950943193868631	-0.07593190526712043	-0.0643315555129515
0.3664418667959658	-0.13341072748837482	-0.1823792196679407
-0.3486882181026365	0.39499849766177475	-0.2479098147402549
0.16535979948310398	0.4759556561045285	0.010123510976078793
-0.3208293018223857	-0.062364437611595006	0.1408235331150569
0.30478065107420693	0.01801916736971435	0.2813008847838405
-0.27507733933759293	0.5880225789124521	0.33248976004175257
0.1567008639586935	0.4424336285403216	0.21449917071541968
-0.3326676139942211	-0.12270260075564672	-0.1981576438231946
0.2799986635241476	-0.16036871735278557	-0.06402670800609495
-0.39294106519993893	0.4114101411645781	-0.11584091991938077
0.30313591889802616	0.4490921917278608	-0.028734734287319062
-0.21503439448055137	-0.15687881462132613	0.19950636601551291
0.19435492397743626	0.033426133128378735	0.36337166027208384
-0.27157979308811464	0.500918543798397	0.22683695418253186
0.1380651235384499	0.5510981600082678	0.29599050874592936
-0.36035495156624814	0.007473838805591642	-0.15695645358709853
0.2653382447487317	-0.04529939780592351	-0.14225948330495947
-0.33875535852418065	0.28532463434750466	-0.16460543054298613
0.2236872578767091	0.34612532959729986	0.019206575397893836
-0.20889498416651914	-0.014408119282315808	0.2102680883486571
0.17394182498753913	-0.040388390326764986	0.24354121083515665
-0.1593626789113687	0.492581461614326	0.3219924047262828
0.14457111942294265	0.4168134468855216	0.3599181199486864
-0.20732503858349474	-0.006357774723148084	-0.2683107462026214
0.21116451781264303	-0.15606850662279212	-0.2926502663365169
-0.1615923935104832	0.345297814230803	-0.16916974177214836
0.10198931709067073	0.37529163039883934	-0.1420057809102764
-0.3772169502271205	-0.1575335767433163	0.31242024103976296
0.18447669706917583	-0.15567055598631235	0.39596394920594985
-0.3378558395406373	0.3634594738169006	0.31739999194181495
0.3294720016710896	0.4163338686227536	0.2900622625245052
-0.15235337527589257	-0.09163849196601559	-0.1953694815429705
0.13619189927915387	-0.18760500812304387	-0.19043167846813316
-0.20712039629507129	0.4068959593783327	-0.05622441455712523
0.2173969800589127	0.32929397637264746	-0.16992835994260208
-0.35980284418196506	-0.02376866087037323	0.31852469307863346
0.3000820513702893	-0.1097133085683513	0.4220495578154291
-0.35080588472737184	0.4415162062012311	0.43417485763772834
0.3026861383304864	0.4966636230206173	0.39132299153694966
-0.16751845933113937	0.034338168635426304	-0.13983367135606312
0.23785664767805628	-0.26664307817027366	-0.21588744011499317
-0.19723116582183797	0.47220201107224175	-0.16439374872142412
0.1913807006020517	0.46258395315833634	-0.18551436058536827
-0.26267689757251195	-0.10466933017390805	0.3702302944803015
0.278480129220998	-0.17889684096079322	0.3050976694154783
-0.24053099287263238	0.37786415954985836	0.4069615971065356
0.32627100191878994	0.5452174882763904	0.27698633973505454
-0.4857723085980486	-0.323652963303636	-0.4257051996785334
-0.015632510959139864	-0.3445695439453811	-0.42757717655292726
-0.5412774714652698	0.13956737956514842	-0.38661243607465434
0.023762879621998974	0.18934788669550864	-0.4269554956035052
-0.48821305463262854	-0.35292650544600757	0.03258908208537334
0.002180103902157053	-0.27898832025312165	0.07191500296400787
-0.5036571851543132	0.15460392333067574	0.08154740300617926
0.018764863104095017	0.1806350792972464	0.11590934075963938
-0.2660743989426195	-0.23004567791644587	-0.4058794972550184
0.23471555955614123	-0.3478980199249237	-0.45033363976123847
-0.2948747369980148	0.14022663344985914	-0.4006009142447814
0.24049377233372637	0.3188092280749469	-0.4167644444290441
-0.26643070278777975	-0.3438735651221283	-0.07248081439865951
0.2251191698624179	-0.2901733043763973	0.14679418494567076
-0.26228708515518095	0.17477640259483682	0.05439575440159449
0.2328303441859047	0.23131805410073752	0.18923245866709087
0.014819293662628222	-0.06613979087399963	-0.030294868260441605
0.46473758707532703	-0.055811344555757494	0.0795828821232603
-0.050454811149575764	0.4102347404812612	0.10924627398371055
0.499721726454203	0.461938538210625	0.151809440591421
0.018290393899733876	-0.038184136813134366	0.6349119869497569
0.38828284875641444	-0.04179790749044665	0.5862968560705281
-0.10002555431752244	0.432233196183813	0.5928659475106153
0.5170630727957284	0.48950130654810986	0.5541221787578396
0.03672252757751277	-0.3882819114304865	-0.13635527577928558
0.40765108280436274	-0.3967239845583363	-0.17406196415228556
-0.025018540630654392	0.21330353418226328	-0.15832455910525167
0.34921928161583676	0.17071982686603587	-0.15454057294964266
-0.0512411030733417	-0.21843079102461993	0.35488796554489693
0.5287740985568502	-0.2900993385307029	0.3295660070315498
-0.07874224669764113	0.16777171155480253	0.34484551205861047
0.5279312988374006	0.1902529544477448	0.3359404794450589
