C_N_H_Pb_I
1.0
       12.614	0	0
       0	12.614	0
       0	0	12.614
    C    N    H   Pb    I
    8    8   48    8   24
Direct
-0.3095537735864852	-0.05071490173738243	-0.1622133051271639
0.21012582553973927	-0.01011759460751343	-0.15934287406908054
-0.3322955565476067	0.4432598441611212	-0.15115908791051277
0.18838925433913226	0.4308425211999622	-0.09659256304047249
-0.34357791040922175	-0.06325873331485905	0.21838646586001886
0.20106654880090583	-0.06401134249770303	0.3004038350955092
-0.26821179793809485	0.5244280294030661	0.3450029858609744
0.13638018713835595	0.44617707934684386	0.33682137429011005
-0.1910617180880791	-0.05754442555787656	-0.18269720629319297
0.26265198202396456	-0.11480670153607815	-0.16914271345197862
-0.2219891396334389	0.4126169956251018	-0.13722100841143434
0.1766147403904916	0.4123833439770945	-0.21600868391866426
-0.28053643605164913	-0.04582593384811106	0.3181886753462349
0.3115607044256101	-0.04546021044057976	0.3330601180222843
-0.27186719605613846	0.40789325275129096	0.3306780320493603
0.2540143376803686	0.4287168107232562	0.33942970329177424
-0.33726277712501	0.030084351026047836	-0.169572911509171
0.24792045196332751	0.045930854585361315	-0.21115372817485323
-0.38000726029558046	0.4199675165255427	-0.08338321585913369
0.24168316961858682	0.3763722319548413	-0.06066502337775207
-0.3920467407718767	-0.13795626528647417	0.23274752018264452
0.17659734187540727	0.013942806496802329	0.26587192706006657
-0.3440090769797174	0.5622034670579402	0.3337165595678368
0.11544261733719924	0.4593895223425263	0.4189776286560435
-0.3201570898937923	-0.07899432450029666	-0.08161172228545274
0.2055032866865281	0.017922734988607317	-0.07480595187945766
-0.3679510204281905	0.4058812227202763	-0.22032044037809215
0.10810424671462557	0.4250307415085165	-0.06106905357597673
-0.2841997711562373	-0.08527315350782712	0.1610094007108008
0.1601107374038193	-0.08296051606674068	0.37204536889722484
-0.20712639742947883	0.5613251367336527	0.2884059063228984
0.09820453831927832	0.3690780918222741	0.31407160197058115
-0.35514607043724944	-0.1089125984955196	-0.2110736210919156
0.12311637902273599	-0.010529597013482151	-0.17813773207717573
-0.3328971326479348	0.5286183000669836	-0.16829187615276836
0.21185110905072452	0.5152886356517985	-0.08780403970773942
-0.3903980638521502	0.003297706431814372	0.20508814895616917
0.1980040506359014	-0.12611934886304368	0.234756785228837
-0.2484811311693811	0.5414177207655317	0.4284356155929397
0.11897068235316291	0.5177888133237802	0.2947495881688682
-0.15470390549855137	-0.12500671994206877	-0.15972594135486046
0.20466139585783188	-0.172065456390426	-0.15860128118466493
-0.17710220016473127	0.4513881773237934	-0.1925179396143528
0.11314058720428065	0.45266231857316197	-0.24861831800282333
-0.2003441865558062	-0.0359359626539846	0.2958883257592335
0.3547415061474081	-0.11132286938124074	0.350864414365363
-0.30682637478403135	0.3739868393084975	0.4015843674365917
0.2651809755524214	0.35666299157013986	0.3758973900412363
-0.15007175093637207	0.001481776204411763	-0.14553784176518905
0.3262160992491599	-0.12537235765415072	-0.10937735636786791
-0.2122396772919978	0.3306766812070542	-0.14440705378981847
0.16128349238784231	0.3300523780952501	-0.22938814356151063
-0.2924910301009604	-0.10304645647016053	0.37256542547115007
0.31416217126441953	0.011193968227771123	0.3940141127329873
-0.19892154262924916	0.3744655511185792	0.32106522855928316
0.28750144858351556	0.4886368661713763	0.38556943905413876
-0.16777440212104408	-0.05118352889828246	-0.25989541617937567
0.29846171542971867	-0.12827886606827263	-0.2425853366436546
-0.18730538812970968	0.4380188606163747	-0.06423686542404007
0.23983850189497527	0.43523447114917824	-0.25998414837396083
-0.3184287084439979	0.02295974883621367	0.3508863297202845
0.35173486354760397	-0.01031974445512069	0.27723171792566687
-0.32099219847319027	0.38578544377894575	0.2702680517179745
0.27930883783789817	0.42626708262174656	0.26200558748768005
-0.4708521643319965	-0.29808218981498974	-0.3991855581578341
0.01706603377714705	-0.33265418011254694	-0.4135830694543153
-0.4810174247921479	0.17032845445028486	-0.407404939844177
0.03453300919381872	0.16986634692805824	-0.44972740445697135
-0.511165977173569	-0.3186929353724341	0.06384448645161193
-0.007215872806466384	-0.32859948737595496	0.09930713084542384
-0.5254181969499883	0.2168116102600252	0.036333753601521794
-0.008800667293181231	0.180535089604384	0.10065852233536449
-0.24035231558747622	-0.21971400330206423	-0.4213475160513906
0.2330725857996011	-0.40517388954882944	-0.43744224756561984
-0.24026702267010677	0.1624132177052915	-0.3639624314546242
0.26672986468648174	0.2018670093059414	-0.49219915179025314
-0.2793156512722421	-0.29663931411520467	-0.0023028500639311333
0.2259426357082075	-0.34413715485199814	0.1652932023900132
-0.2801461012224208	0.16968355286244444	0.0563839055354979
0.22187083259399773	0.21433613843508387	0.165512430662755
-0.017835865493013095	-0.06667765071656474	0.04317224339130324
0.3992876550879956	-0.057513492144703214	0.056159498917556776
-0.09915588809767079	0.43354207491446256	0.08723339798480702
0.5057908005721882	0.4328145674500748	0.16615786488866446
0.02954307468977847	-0.043537625555551615	0.5963536156830989
0.4094037708041019	-0.09864312381785667	0.5963406310386278
-0.08683355058380207	0.4813124646946326	0.615648306020067
0.5432582233675175	0.4084169904843548	0.5560080527145607
0.043479254629558366	-0.3025519292632814	-0.17844143370086885
0.39937681182489865	-0.3932417624882554	-0.14546012517189444
-0.003498151261720576	0.23156362668345043	-0.1669829796971891
0.4153842203663316	0.21697206371541983	-0.1842467061533905
-0.08868098371275082	-0.2661267424182855	0.32225512137340034
0.45449551744564937	-0.30145911544464665	0.3572029184282544
-0.11034250810051645	0.18309163210833396	0.34273389065851867
0.5434186366237357	0.1578748176557229	0.34453389574227505
