C_N_H_Pb_I
1.0
       12.614	0	0
       0	12.614	0
       0	0	12.614
    C    N    H   Pb    I
    8    8   48    8   24
Direct
-0.35408858470809895	-0.07542572760926428	-0.12245315690075484
0.229830227732851	0.04882262984126168	-0.15399041202129543
-0.29147285200302264	0.517506471227466	-0.18207808678645707
0.23835862932279878	0.38116403347312733	-0.06108672090168393
-0.24747178908420675	-0.10074026531664118	0.2271922295918857
0.18759960199180847	-0.10839875173212586	0.37423909720515364
-0.29090787889429137	0.5247265215153544	0.2950785936732802
0.12835038914331096	0.3908474437276536	0.3379221223151231
-0.239616750443603	-0.04651624505033791	-0.13918096174302172
0.2040066988786341	-0.06690334053809079	-0.12846253193094187
-0.28574221584638393	0.40680006294504406	-0.2170116126981454
0.21790895363836918	0.41557413293161954	-0.1749197469046226
-0.2563829654378336	-0.09085752307614221	0.34887098422407814
0.27259051450671806	-0.028672616697800555	0.3485334785435089
-0.27645823706205075	0.40736045695845774	0.29449398301454255
0.24863125125806126	0.41806669055565077	0.32562812693049514
-0.3649681320299156	-0.10344232124149721	-0.03976925468907451
0.3127744675131021	0.05963590339399219	-0.1721916876295046
-0.35211899198133845	0.5300396551367608	-0.12133683669359185
0.23236037137566795	0.2929641640588776	-0.06038448924045124
-0.2756340384305596	-0.027721756239372612	0.19014763293295903
0.19150773095316226	-0.17124442168261836	0.32054514020013913
-0.27173096420103715	0.553719806005493	0.2188941955187897
0.13238328612489528	0.3006110433511389	0.34173385468220724
-0.36327901904427096	-0.1406480004362181	-0.18121813041685333
0.20534093916448914	0.09620932287388179	-0.08540733620638796
-0.31812638932657744	0.561671061659252	-0.24962586479255455
0.18259009184166122	0.41985710837400386	-0.01131465589082431
-0.29506415418588305	-0.17212620269551165	0.2130135144044226
0.11569725060866815	-0.06004434141987645	0.3709592952732059
-0.2393957905121419	0.5523057272870244	0.35829746709597754
0.08983317302439786	0.42796588234992516	0.27219049791148725
-0.3984748945817204	-0.005786367084609391	-0.14187473024909225
0.17656633421195864	0.07874570005749139	-0.2116850582130968
-0.21544291999649845	0.5521222576404861	-0.15150136457651567
0.3206228614886939	0.4059139720286695	-0.0413074924644172
-0.16314921269920113	-0.11469664066890832	0.2145094018045415
0.19027576955085418	-0.1396140574132803	0.456070564528542
-0.37667732235787016	0.5407067338796852	0.31336990568223777
0.10152180979558109	0.43349164759218445	0.4107108847459637
-0.18862448587473657	-0.10336694249863447	-0.10886667781440303
0.12878719657689747	-0.07587594682248545	-0.09410137719986156
-0.2350234919946695	0.39449906739379703	-0.2815704280547107
0.2121977636514244	0.4974739470536655	-0.1805575156555058
-0.3373124396878247	-0.09585011941049032	0.3681435327507939
0.26702728974483386	0.03327923201137485	0.406346134894697
-0.3321263778032339	0.36938513445275634	0.25251769947426894
0.272604612227717	0.4263454782773186	0.24867917874370174
-0.22356192470261235	0.024590708471092623	-0.10041052462946908
0.2648589114687414	-0.08809930321071284	-0.07997536610863284
-0.3603547588746541	0.38966330567685786	-0.23472848257557555
0.14732149610359796	0.387939174197863	-0.20843711092205658
-0.21748778098834537	-0.024200903073908785	0.38297827718911154
0.2579610660384541	0.011886753751851642	0.2705426397674913
-0.2790814649206511	0.37339998964929266	0.37234174148655413
0.29493435650713495	0.36862053802308997	0.3663390261859177
-0.2186734037040943	-0.03584888931612446	-0.22120986087379077
0.2041667430259911	-0.11956272377449877	-0.19207247177558467
-0.2630870413903176	0.3523160472390112	-0.15439411193025862
0.2785559115295465	0.38424257676934914	-0.22422982931672367
-0.2157514981241515	-0.1557832840989691	0.38300268665426124
0.354361348653889	-0.04287050627368682	0.34573154174559223
-0.20444839920518187	0.3854215993822936	0.26010515571309606
0.2640537069596163	0.49257371265617633	0.36233883166108705
-0.5165536022555921	-0.28164112186631024	-0.4202101361133404
-0.015498703916297724	-0.3554195944942535	-0.4007815418550697
-0.4957434197509301	0.21262735659710225	-0.43773625546217615
-0.008720859947860721	0.17184537606066108	-0.406592229279928
-0.4864860648162917	-0.3036558691388645	0.04749746376635537
0.007033415481905344	-0.32589348582369193	0.08121386558464824
-0.4957271322276656	0.1879177188032375	0.08890660725499186
0.002046934162758501	0.1777216646180973	0.11548421840316098
-0.28121773851652426	-0.23206395548170883	-0.39989617364645097
0.21039567777943893	-0.4216585557241924	-0.42348865532341257
-0.26864471435256765	0.14676455759661156	-0.3535581285863395
0.24677595651973597	0.21095410611359985	-0.47597498489788526
-0.2402737641020379	-0.2966285383218892	0.008989742643796551
0.24202044542921203	-0.3596957873193907	0.1503975272873283
-0.27029416868763895	0.216615431636953	2.6552511177499515e-05
0.22402821992292143	0.167358209758391	0.1755481762400845
-0.013851327842927419	-0.07918758028863246	0.037533375004691116
0.42115916547747984	-0.07111604376415051	0.07408729715581533
-0.06854813053081682	0.4229236628117344	0.09215573775619905
0.4584208911902568	0.4245091107184525	0.1351661732925806
0.008876803209636115	-0.0634270946826732	0.6841975179124914
0.3887148738768748	-0.06732264081825444	0.5915124402053278
-0.09892748212645164	0.41570059514810537	0.5429266656872223
0.5320758718638123	0.45338177421755826	0.5233025050180254
0.08770983824614122	-0.34378610171063173	-0.13909760158011963
0.4010818947620383	-0.3383641667994708	-0.16517147816042282
-0.006743220445091622	0.27270379605448186	-0.19123180312928298
0.45006208526428876	0.26214431243475367	-0.20609772947359378
-0.052141756733757344	-0.28858772685491796	0.3719657139605114
0.5097579094288122	-0.24692160377465264	0.334442463276668
-0.09679175960509809	0.16026049097022455	0.3390950705244525
0.5600995873928853	0.12153935638216894	0.29506918639691043
