C_N_H_Pb_I
1.0
       12.614	0	0
       0	12.614	0
       0	0	12.614
    C    N    H   Pb    I
    8    8   48    8   24
Direct
-0.3325681820229288	-0.0685181393157726	-0.15271680890170192
0.2605071960070743	-0.03704979394509716	-0.12185892422299498
-0.34606266594149615	0.4009400002358607	-0.16547231011452365
0.2265694125264931	0.4280302012333007	-0.07396437501560245
-0.2805946332605519	-0.09204833418376215	0.24216368711723874
0.18542202844090105	-0.03597420054940969	0.38116468063473846
-0.2749243983960151	0.5055178406901606	0.3272203061330923
0.18383558437736608	0.4637818113691769	0.3340461015158364
-0.22182602584113528	-0.07087324669409785	-0.18705017121660833
0.2161999030465451	-0.1315126968538665	-0.16908921375126773
-0.23057947433191261	0.4177049340083857	-0.14897191827230397
0.20988077813091702	0.4272036049423706	-0.19424874392337857
-0.31850955140857	-0.05580910596159263	0.3522119843949957
0.27046776043532217	-0.1153840087502715	0.352306005547945
-0.2667713057965832	0.39045612993592166	0.30646235613302947
0.3046825676797119	0.45196994174768784	0.3525362693089356
-0.3740748189806676	0.007159502081991096	-0.1651903241960716
0.33109550542012167	-0.011720764879729593	-0.16407758585746593
-0.35897258941888216	0.38095065461487804	-0.2453215534615516
0.14830246736563313	0.457985200717309	-0.04980644921528466
-0.32328265981701976	-0.05105282502970275	0.17414935556318456
0.22138375109440137	0.040739810479064796	0.4112227079295622
-0.26526709034982243	0.5292971783945973	0.41105032563540184
0.1640983664710179	0.4301736366772971	0.2582957115961564
-0.34566178402117215	-0.08146384530582272	-0.06845879772486618
0.2771165936480721	-0.05231885242883151	-0.03303891390352847
-0.3873916695450466	0.4759914720246144	-0.1430295440705615
0.2906845344217624	0.4807284506895531	-0.051354972320887655
-0.2981346609883859	-0.17794284996738338	0.23986087622370433
0.12613811075826087	-0.06633302983252148	0.4373988007268608
-0.35502356578715366	0.523547827213149	0.303758515376409
0.1665078608392913	0.5489364546625957	0.336724037546142
-0.3758245016724414	-0.132815765222197	-0.19077071242881347
0.19859134474508572	0.02551019475755292	-0.1227509084299919
-0.37137282957245815	0.33687235181489067	-0.11680668626506757
0.23932704479442332	0.34684803295403177	-0.04976206744087648
-0.19606571076308155	-0.0886162829619976	0.24005425800329824
0.1471424765910995	-0.01566309224052739	0.3072767761782141
-0.22623843331078036	0.5561247100303526	0.27916496820438835
0.1333136070390971	0.4173331314417799	0.3861396138710365
-0.17449388430157484	-0.006623350618045225	-0.15641031016293774
0.206404495996525	-0.12751604408708972	-0.25055884538306955
-0.21103266825733397	0.47799446440070165	-0.09479667458665929
0.18609945452764765	0.35339460346916224	-0.21735360184876837
-0.38956328075776336	-0.09457661161888489	0.3760623663293966
0.22770313633157813	-0.17617965161733964	0.30976906114562897
-0.2832077555107462	0.3728456837553189	0.2252947821032101
0.3489872966665573	0.5035498952859803	0.3077255991997202
-0.20466746182854437	-0.054712414818378914	-0.26608148225814915
0.14003386111846416	-0.14212146157900102	-0.14773982972329952
-0.1977738634581003	0.44607346504923023	-0.22333692637340175
0.27893086881225704	0.43701406868480774	-0.23572748678099598
-0.32214869997620216	0.029792777665672534	0.3680896571425859
0.31573011900110687	-0.14106335738367132	0.420296149172997
-0.32470229963757175	0.34655823257317325	0.34354518534497575
0.33479443304813605	0.37582546964840047	0.32986246468087443
-0.18288093143768602	-0.1403407929859525	-0.170586107017542
0.2691036048768176	-0.19250467825636275	-0.15993787636072576
-0.18878579331000397	0.34620340818075857	-0.1441886996806186
0.15760320652665785	0.4874181794149462	-0.21623677371806846
-0.2628171338813555	-0.08904801179444473	0.4056514026026606
0.32060560670239874	-0.08274687683797795	0.2970239408202445
-0.1910089718973384	0.35669132936793474	0.32299643139542233
0.3283859986666318	0.46725443050467513	0.4268541000847577
-0.4879320772360992	-0.3301046338642534	-0.4153867510138989
-0.016759128640465172	-0.38803467000550984	-0.4287554894793656
-0.5339758141602416	0.1682693584220121	-0.4246256717419371
-0.010287494725008737	0.16109672590016064	-0.4098459879125247
-0.49289993733866444	-0.3212712165159035	0.06096910267424378
-0.0032428577189361468	-0.30669387812160204	0.10073104069488804
-0.5107354164264117	0.18790351591870688	0.05477078026284137
0.018423903913338726	0.19960525985896926	0.11636496256833614
-0.26015283374854153	-0.23758449387641817	-0.41344154637948655
0.24009372232836937	-0.362460113407202	-0.4381368540485902
-0.29257425734671416	0.11551561157008775	-0.3641581911783451
0.24145721687778104	0.2801017424700071	-0.43046341374286484
-0.26553755103986565	-0.3208350197265268	-0.008161424900922224
0.23797115756325055	-0.3248487844395378	0.13323996278193007
-0.26922216827164724	0.1573163160202389	0.04635226973656343
0.24901572948639986	0.1939962928144934	0.20405255212896717
0.0037342187761204054	-0.08425081093156006	-0.003510060659326212
0.44997336093788587	-0.06130394065142492	0.09541366733731128
-0.05642855997500185	0.439676728380876	0.12594404725607028
0.546850523294026	0.4455678260699758	0.10447540712037723
0.030242709107146652	-0.054895667858513596	0.6106273084148905
0.3751660409007063	-0.040279234409489564	0.5969734842406078
-0.1393692423546508	0.4398402211503467	0.5907989935564731
0.5453065975507636	0.4295241089393918	0.5487948479005672
0.026398008966203017	-0.3387822647707414	-0.19999396670090452
0.4142249842021289	-0.318495830666295	-0.16896468503914622
-0.0007150072580770895	0.23999357117804496	-0.18260388090519367
0.38752954721285204	0.2361175314652748	-0.16307673659282185
-0.019362270024297377	-0.23841095689253472	0.3317426322024362
0.501077329568717	-0.2896768639493489	0.3354040839950081
-0.09278614081034994	0.17955299418138615	0.34176425622247714
0.523361560405554	0.18031927542700665	0.32434050114586943
