C_N_H_Pb_I
1.0
       12.614	0	0
       0	12.614	0
       0	0	12.614
    C    N    H   Pb    I
    8    8   48    8   24
Direct
-0.39652040103008535	-0.03393774693596637	-0.1344959163341271
0.26288986218483856	-0.05428483890565499	-0.1413353795541953
-0.3238335704014176	0.40518093670516664	-0.19368794965467018
0.21505801479985648	0.4254120258011597	-0.057249779026881546
-0.27464926811189877	-0.11120900667702119	0.2044087484471281
0.19053439111560574	-0.03386554618314701	0.38403671935904443
-0.2867455274270095	0.5026559495675836	0.3206504107331825
0.17762932303812654	0.5054450122479842	0.3123490353816933
-0.29713631232661664	-0.07014810675275802	-0.18584663816746133
0.20644124959827492	-0.15170271956258038	-0.16841732925226102
-0.2209705059654241	0.40809463613884867	-0.12603205061268716
0.2095636555015986	0.4364916014144974	-0.17201534171052463
-0.3002336101438224	-0.044693654859095745	0.3017001606913594
0.27073572084565745	-0.12181663463673424	0.3460216745284272
-0.26902198739924044	0.3916893646442487	0.3534129666440238
0.2861430153886747	0.47331335184776063	0.34665772991442245
-0.3865488377435446	0.04934837536493361	-0.12150725083348314
0.27946800706628977	-0.024012554514297138	-0.2198431510101666
-0.3514467925498276	0.3227130550246071	-0.18888826250068547
0.2078183729768562	0.5010341188131776	-0.01731604169286795
-0.2956575952752695	-0.059184482150501164	0.13584702258058817
0.2220458952318199	0.049074224576156	0.37916285485606216
-0.3356811027959501	0.5467338299117537	0.3796129526297491
0.11340080014238452	0.4488546823549713	0.33685858983566563
-0.4176890035159696	-0.07575227210881597	-0.06594583780754185
0.32880305992897435	-0.07664191014072361	-0.09250114311454428
-0.2966108219402524	0.42029203413795574	-0.27619407671858653
0.2845813223988845	0.37922699723743647	-0.04472147451758085
-0.3150008171762321	-0.19065768421544926	0.21438001869614456
0.17500890560150573	-0.046147998284194844	0.46719641522671324
-0.33996958405774796	0.4957354397601201	0.24856778339697355
0.17531532647840334	0.5121683941259922	0.22797376632449484
-0.46258157841877656	-0.03801674679879412	-0.1907028825582551
0.20679679930036032	-0.007123574247807217	-0.09299966203748292
-0.377743575347778	0.4714228247637461	-0.17555452987034625
0.14369529888862892	0.3752766667048843	-0.03182939432375126
-0.18495341644154456	-0.12232406766652522	0.20507476906234673
0.11352700035319821	-0.04510444635937185	0.33739850622093076
-0.2178293215475782	0.5475528444810477	0.3002890475649097
0.16231777716426724	0.582978630229991	0.34483049533760773
-0.22852076309947414	-0.07538537454871276	-0.1361850268914115
0.13674992959289595	-0.12667617505636283	-0.21888111585820064
-0.21500716642225395	0.48534669582483125	-0.09972913611688532
0.16350136368183746	0.49726884493185947	-0.19875434291248548
-0.37029963812386163	-0.010464450594238003	0.2864077891522975
0.23650749021821235	-0.1944067987418546	0.35281356487109833
-0.2086786643861855	0.3518467777788023	0.3095239299854918
0.30689157451105603	0.4065288451511724	0.30045233912025027
-0.27284489386532507	-0.025210059568598935	-0.25239888984889247
0.17837319944618651	-0.18545009441264582	-0.10239956001337693
-0.15662332022953462	0.3841293120360741	-0.1694363978071959
0.17367660221330122	0.36922953842223993	-0.213983729612967
-0.25240752164468255	0.016458472987406762	0.31688323072233854
0.3352563986518432	-0.11904732786634657	0.3925468712855695
-0.33424659831710135	0.3476329834855864	0.34519347866731487
0.2973855159769978	0.4569424264786639	0.4225470730547869
-0.30473949021053254	-0.1482598741608052	-0.20097027346214552
0.2522104279570812	-0.2141155627259513	-0.19817697374903157
-0.23139553877450098	0.36110419008303163	-0.05858973937220334
0.2836044863501893	0.4484054849230708	-0.2084585309831706
-0.306601051389983	-0.0914793410691176	0.36844802285072253
0.2934084571891964	-0.10261889661197422	0.26474289299249854
-0.2561261870759894	0.38187661510850673	0.43627154595137807
0.35151850875263185	0.5304583829476119	0.3325389505796864
-0.47619401088053154	-0.3234053040945346	-0.4148059739208298
-0.0126110383638379	-0.34734847976927663	-0.41035255282266453
-0.5236279868351004	0.1454465771720501	-0.4025648961470009
0.011096095568892126	0.18879356131439873	-0.4026501004799966
-0.480908500376499	-0.34150784357984343	0.046367015707325314
0.005321486101064348	-0.3081157482364787	0.09924475466647861
-0.5314611980464152	0.148962696550392	0.07185175849146565
0.0003125536588322875	0.19803563783693487	0.12506448669731882
-0.24988474379983153	-0.21055297535444537	-0.4517125613715447
0.22970904285654636	-0.3305820205557805	-0.4499389305497078
-0.2694292555511472	0.1496656128586513	-0.3639992531470661
0.2463558470742482	0.2667197429135248	-0.4560979728933862
-0.25463466312947974	-0.3106380035814364	-0.04928358283482876
0.25535123175263363	-0.268741657722447	0.10000337088641413
-0.29358089880127647	0.14329411393943736	0.014251432084814119
0.2283378840828888	0.24809805058352813	0.17597546223009136
-0.04096841992154928	-0.08178677586349044	0.006433487184521681
0.4567858707735656	-0.07981493817774062	0.11701043241455882
-0.06815519891513716	0.41867621856284293	0.10311076263633323
0.5165092401607447	0.43543101368831344	0.11089050450004999
0.05518240801183163	-0.029130724733937824	0.6483884863760393
0.39283628350919964	-0.05729270051406343	0.5938150421353501
-0.1209160848620368	0.44491254027729726	0.5683227506394521
0.5293959232678663	0.4544047352413506	0.5368009172476033
0.03456196199008324	-0.38041838113856	-0.18328700500559852
0.4149955844019525	-0.36169999027959443	-0.17037181070948437
0.007908915154416694	0.23558917711152993	-0.1482657441663863
0.3829885017478039	0.18966307393640375	-0.1517432930985363
-0.013539355115632722	-0.2548727323784377	0.33823229940350213
0.47891006521757584	-0.277262784922749	0.3507378423162459
-0.09871275836425601	0.13695781427018847	0.33417305385023727
0.5259680397601406	0.19556322465779793	0.3539432025843936
